(set-info :smt-lib-version 2.6)
(set-info :category "crafted")
(set-logic QF_FFA)
(define-sort FF0 () (_ FiniteField 52435875175126190479447740508185965837690552500527637822603658699938581184513))
(declare-fun _18_alt () FF0)
(declare-fun _17_alt () FF0)
(declare-fun _10_alt () FF0)
(declare-fun _16_alt () FF0)
(declare-fun _9_alt () FF0)
(declare-fun _15_alt () FF0)
(declare-fun _8_alt () FF0)
(declare-fun _14_alt () FF0)
(declare-fun _7_alt () FF0)
(declare-fun _13_alt () FF0)
(declare-fun _6_alt () FF0)
(declare-fun _12_alt () FF0)
(declare-fun _5_alt () FF0)
(declare-fun _11_alt () FF0)
(declare-fun _4_alt () FF0)
(declare-fun _3_alt () FF0)
(declare-fun _0_alt () FF0)
(declare-fun _2_alt () FF0)
(declare-fun _1_alt () FF0)
(declare-fun _18 () FF0)
(declare-fun _17 () FF0)
(declare-fun _10 () FF0)
(declare-fun _16 () FF0)
(declare-fun _9 () FF0)
(declare-fun _15 () FF0)
(declare-fun _8 () FF0)
(declare-fun _14 () FF0)
(declare-fun _7 () FF0)
(declare-fun _13 () FF0)
(declare-fun _6 () FF0)
(declare-fun _12 () FF0)
(declare-fun _5 () FF0)
(declare-fun _11 () FF0)
(declare-fun _4 () FF0)
(declare-fun _3 () FF0)
(declare-fun _0 () FF0)
(declare-fun _2 () FF0)
(declare-fun _1 () FF0)
(declare-fun out_alt () FF0)
(declare-fun out () FF0)
(assert 
  (let ((let0 (as ff52435875175126190479447740508185965837690552500527637822603658699938581184512 FF0)))
  (let ((let1 _18_alt))
  (let ((let2 (ff.mul let1 let0)))
  (let ((let3 _17_alt))
  (let ((let4 _10_alt))
  (let ((let5 (ff.add let4 let3 let2)))
  (let ((let6 (ff.mul let3 let4)))
  (let ((let7 (= let6 let5)))
  (let ((let8 (ff.mul let3 let0)))
  (let ((let9 _16_alt))
  (let ((let10 _9_alt))
  (let ((let11 (ff.add let10 let9 let8)))
  (let ((let12 (ff.mul let9 let10)))
  (let ((let13 (= let12 let11)))
  (let ((let14 (ff.mul let9 let0)))
  (let ((let15 _15_alt))
  (let ((let16 _8_alt))
  (let ((let17 (ff.add let16 let15 let14)))
  (let ((let18 (ff.mul let15 let16)))
  (let ((let19 (= let18 let17)))
  (let ((let20 (ff.mul let15 let0)))
  (let ((let21 _14_alt))
  (let ((let22 _7_alt))
  (let ((let23 (ff.add let22 let21 let20)))
  (let ((let24 (ff.mul let21 let22)))
  (let ((let25 (= let24 let23)))
  (let ((let26 (ff.mul let21 let0)))
  (let ((let27 _13_alt))
  (let ((let28 _6_alt))
  (let ((let29 (ff.add let28 let27 let26)))
  (let ((let30 (ff.mul let27 let28)))
  (let ((let31 (= let30 let29)))
  (let ((let32 (ff.mul let27 let0)))
  (let ((let33 _12_alt))
  (let ((let34 _5_alt))
  (let ((let35 (ff.add let34 let33 let32)))
  (let ((let36 (ff.mul let33 let34)))
  (let ((let37 (= let36 let35)))
  (let ((let38 (ff.mul let33 let0)))
  (let ((let39 _11_alt))
  (let ((let40 _4_alt))
  (let ((let41 (ff.add let40 let39 let38)))
  (let ((let42 (ff.mul let39 let40)))
  (let ((let43 (= let42 let41)))
  (let ((let44 (ff.mul let39 let0)))
  (let ((let45 _3_alt))
  (let ((let46 _0_alt))
  (let ((let47 (ff.add let46 let45 let44)))
  (let ((let48 (ff.mul let46 let45)))
  (let ((let49 (= let48 let47)))
  (let ((let50 (as ff1 FF0)))
  (let ((let51 (ff.mul let4 let0)))
  (let ((let52 _2_alt))
  (let ((let53 _1_alt))
  (let ((let54 (ff.mul let53 let0)))
  (let ((let55 (ff.add let54 let52 let51 let50)))
  (let ((let56 (ff.add let54 let50)))
  (let ((let57 (ff.mul let56 let52)))
  (let ((let58 (= let57 let55)))
  (let ((let59 (ff.mul let10 let10)))
  (let ((let60 (= let59 let10)))
  (let ((let61 (ff.mul let16 let16)))
  (let ((let62 (= let61 let16)))
  (let ((let63 (ff.mul let22 let22)))
  (let ((let64 (= let63 let22)))
  (let ((let65 (ff.mul let28 let28)))
  (let ((let66 (= let65 let28)))
  (let ((let67 (ff.mul let34 let34)))
  (let ((let68 (= let67 let34)))
  (let ((let69 (ff.mul let40 let40)))
  (let ((let70 (= let69 let40)))
  (let ((let71 (ff.mul let45 let45)))
  (let ((let72 (= let71 let45)))
  (let ((let73 (ff.mul let52 let52)))
  (let ((let74 (= let73 let52)))
  (let ((let75 (ff.mul let53 let53)))
  (let ((let76 (= let75 let53)))
  (let ((let77 (ff.mul let46 let46)))
  (let ((let78 (= let77 let46)))
  (let ((let79 (and let78 let76 let74 let72 let70 let68 let66 let64 let62 let60 let58 let49 let43 let37 let31 let25 let19 let13 let7)))
  (let ((let80 _18))
  (let ((let81 (ff.mul let80 let0)))
  (let ((let82 _17))
  (let ((let83 _10))
  (let ((let84 (ff.add let83 let82 let81)))
  (let ((let85 (ff.mul let82 let83)))
  (let ((let86 (= let85 let84)))
  (let ((let87 (ff.mul let82 let0)))
  (let ((let88 _16))
  (let ((let89 _9))
  (let ((let90 (ff.add let89 let88 let87)))
  (let ((let91 (ff.mul let88 let89)))
  (let ((let92 (= let91 let90)))
  (let ((let93 (ff.mul let88 let0)))
  (let ((let94 _15))
  (let ((let95 _8))
  (let ((let96 (ff.add let95 let94 let93)))
  (let ((let97 (ff.mul let94 let95)))
  (let ((let98 (= let97 let96)))
  (let ((let99 (ff.mul let94 let0)))
  (let ((let100 _14))
  (let ((let101 _7))
  (let ((let102 (ff.add let101 let100 let99)))
  (let ((let103 (ff.mul let100 let101)))
  (let ((let104 (= let103 let102)))
  (let ((let105 (ff.mul let100 let0)))
  (let ((let106 _13))
  (let ((let107 _6))
  (let ((let108 (ff.add let107 let106 let105)))
  (let ((let109 (ff.mul let106 let107)))
  (let ((let110 (= let109 let108)))
  (let ((let111 (ff.mul let106 let0)))
  (let ((let112 _12))
  (let ((let113 _5))
  (let ((let114 (ff.add let113 let112 let111)))
  (let ((let115 (ff.mul let112 let113)))
  (let ((let116 (= let115 let114)))
  (let ((let117 (ff.mul let112 let0)))
  (let ((let118 _11))
  (let ((let119 _4))
  (let ((let120 (ff.add let119 let118 let117)))
  (let ((let121 (ff.mul let118 let119)))
  (let ((let122 (= let121 let120)))
  (let ((let123 (ff.mul let118 let0)))
  (let ((let124 _3))
  (let ((let125 _0))
  (let ((let126 (ff.add let125 let124 let123)))
  (let ((let127 (ff.mul let125 let124)))
  (let ((let128 (= let127 let126)))
  (let ((let129 (ff.mul let83 let0)))
  (let ((let130 _2))
  (let ((let131 _1))
  (let ((let132 (ff.mul let131 let0)))
  (let ((let133 (ff.add let132 let130 let129 let50)))
  (let ((let134 (ff.add let132 let50)))
  (let ((let135 (ff.mul let134 let130)))
  (let ((let136 (= let135 let133)))
  (let ((let137 (ff.mul let89 let89)))
  (let ((let138 (= let137 let89)))
  (let ((let139 (ff.mul let95 let95)))
  (let ((let140 (= let139 let95)))
  (let ((let141 (ff.mul let101 let101)))
  (let ((let142 (= let141 let101)))
  (let ((let143 (ff.mul let107 let107)))
  (let ((let144 (= let143 let107)))
  (let ((let145 (ff.mul let113 let113)))
  (let ((let146 (= let145 let113)))
  (let ((let147 (ff.mul let119 let119)))
  (let ((let148 (= let147 let119)))
  (let ((let149 (ff.mul let124 let124)))
  (let ((let150 (= let149 let124)))
  (let ((let151 (ff.mul let130 let130)))
  (let ((let152 (= let151 let130)))
  (let ((let153 (ff.mul let131 let131)))
  (let ((let154 (= let153 let131)))
  (let ((let155 (ff.mul let125 let125)))
  (let ((let156 (= let155 let125)))
  (let ((let157 (and let156 let154 let152 let150 let148 let146 let144 let142 let140 let138 let136 let128 let122 let116 let110 let104 let98 let92 let86)))
  (let ((let158 out_alt))
  (let ((let159 out))
  (let ((let160 (= let159 let158)))
  (let ((let161 (not let160)))
  (let ((let162 (= let113 let34)))
  (let ((let163 (= let119 let40)))
  (let ((let164 (= let89 let10)))
  (let ((let165 (= let95 let16)))
  (let ((let166 (= let107 let28)))
  (let ((let167 (= let125 let46)))
  (let ((let168 (= let101 let22)))
  (let ((let169 (= let124 let45)))
  (let ((let170 (= let131 let53)))
  (let ((let171 (= let130 let52)))
  (let ((let172 (and let171 let170 let169 let168 let167 let166 let165 let164 let163 let162)))
  (let ((let173 (and let172 let161 let157 let79)))
  let173
))))))))))))))))))))))))))))))))))))))))))))))))))))))))))))))))))))))))))))))))))))))))))))))))))))))))))))))))))))))))))))))))))))))))))))))))))))))))))))))))))))))))))))))
)
(check-sat)
